c Random 9-CNF over 30 variables and 150 clauses
c Generated with `cnfgen`
c (C) 2012-2016 Massimo Lauria <lauria.massimo@gmail.com>
c https://massimolauria.github.io/cnfgen
c
c COMMAND LINE: cnfgen --output tmp-9-30-150.dimacs --output-format dimacs randkcnf 9 30 150
c
c sdimacs generated by gen-sdimacs
c
p cnf 30 150
r 0.5 1 2 3 4 5 6 7 8 9 10 11 12 13 14 15 0
e  16 17 18 19 20 21 22 23 24 25 26 27 28 29 30 0
-1 -4 -9 11 16 17 -20 -23 -27 0
3 4 -9 -15 -19 -25 -27 28 29 0
-3 4 -5 8 9 11 13 25 26 0
-1 2 6 7 10 13 19 23 -30 0
1 -2 -9 -14 18 -19 -20 -21 22 0
-2 3 -5 -8 -12 19 22 24 -25 0
3 4 -7 10 11 -13 18 -19 -21 0
-2 -4 -5 7 -10 11 15 23 24 0
-1 6 -11 -16 17 18 -22 -25 26 0
-4 17 18 -20 -21 24 -25 26 -27 0
3 -4 12 -15 -18 -19 -21 27 -30 0
2 3 5 8 -9 13 22 24 -30 0
5 -12 -19 -22 24 -25 26 27 -30 0
-2 -6 -7 10 -14 21 -26 -28 29 0
3 9 10 13 -14 -15 -16 -17 -27 0
4 -8 17 -18 -19 21 24 -28 30 0
-7 -9 13 15 -16 22 25 -27 -30 0
-3 6 8 11 20 21 -24 25 28 0
1 2 -3 -9 14 15 -17 -28 29 0
-1 -8 10 -11 -14 -17 -19 -21 27 0
1 -3 -4 -8 -9 -11 19 22 -29 0
-1 3 4 9 -11 15 -19 24 -26 0
5 -6 -8 13 -15 18 -20 -21 29 0
8 -10 -12 -18 -20 -21 24 28 30 0
4 -6 -8 -10 -12 -15 18 21 22 0
7 -13 -14 17 -18 21 -23 -24 26 0
-1 4 5 -6 -11 13 21 23 -26 0
-4 5 10 11 14 -17 19 -22 25 0
-4 7 -9 -14 -17 -18 -20 -21 -22 0
-2 -8 -11 12 13 -15 20 21 -23 0
5 9 -10 20 -21 -22 -26 -27 30 0
4 9 -13 -14 17 20 -21 27 30 0
5 7 -9 -11 -13 -16 23 28 29 0
-4 -5 8 -10 11 13 -18 22 30 0
-1 -4 5 8 -12 -16 17 -18 -29 0
5 6 -8 -10 11 -14 18 -24 -27 0
2 6 7 -8 -10 11 -17 18 29 0
6 -7 -17 18 19 23 24 25 -27 0
2 -3 -6 -8 -12 -18 24 28 -29 0
-9 -10 -11 12 -13 19 20 22 -24 0
3 10 12 15 -17 20 23 -27 29 0
-2 5 -6 -8 18 -20 -25 -27 30 0
-1 8 11 -13 -19 -21 -24 -26 -29 0
1 3 -5 -7 -11 12 -17 -18 22 0
2 -7 8 10 -11 13 -14 21 -23 0
-4 6 -11 13 14 20 26 29 30 0
3 -4 -6 10 -14 19 -23 -25 -27 0
-1 3 7 -8 -10 -17 18 -22 -29 0
4 6 7 -9 -13 14 21 24 27 0
-2 -5 -7 -12 -16 -17 20 -23 -28 0
-3 -4 -6 10 15 17 21 -25 26 0
1 -8 10 -11 13 20 22 -25 -29 0
-1 3 -8 -11 -12 -16 17 -23 28 0
-4 -5 6 10 -11 -12 18 -23 26 0
2 10 11 -14 -16 -18 -24 29 -30 0
1 5 -6 -7 9 -13 -15 23 -24 0
-4 -5 8 -12 -19 20 21 -22 -27 0
1 -2 3 4 11 -12 -15 -20 27 0
3 -4 6 8 10 11 13 28 30 0
2 -4 -5 -8 10 15 16 -21 -24 0
-4 -7 -9 -12 -13 -18 19 -24 -29 0
-3 5 6 7 10 13 -17 25 28 0
5 6 9 -10 16 -18 21 -29 30 0
4 -5 -7 -11 -12 13 14 -23 26 0
-4 -12 15 -23 -24 27 28 29 -30 0
-1 -6 -8 9 10 -13 19 -22 30 0
-2 -3 6 -7 -9 -11 -18 20 28 0
-7 11 -16 -18 19 -22 23 -25 -29 0
2 4 6 -8 -11 -13 -15 -17 -25 0
1 3 10 -11 14 16 17 22 -24 0
-2 -8 -11 13 20 21 -23 26 30 0
1 9 -12 -13 -15 17 -21 27 28 0
-2 4 -5 9 10 16 -17 -24 27 0
-2 -3 -4 -5 15 -18 20 -26 -29 0
-4 6 -8 -16 -18 -21 -22 26 28 0
-1 -2 -5 7 -12 17 -21 22 29 0
-3 -10 14 -19 20 22 -25 -28 30 0
3 11 -18 -21 -24 25 27 -28 -29 0
-3 -7 10 -13 16 20 -23 24 -30 0
-1 -5 -7 -14 -16 -20 -22 -24 -26 0
-2 3 -4 -6 11 -12 -16 17 -22 0
3 4 -5 6 7 13 14 24 -28 0
-2 -6 -9 10 15 -25 27 28 -30 0
6 -7 -10 11 -12 13 -14 23 -24 0
1 5 -7 -10 11 14 -16 20 30 0
-3 5 -6 -12 16 18 -21 -24 -29 0
2 5 -7 -10 13 -17 -18 -22 30 0
-1 3 5 9 12 16 -19 -25 30 0
-1 2 -3 -5 8 -9 -10 12 -29 0
-6 8 10 -13 -14 -15 -19 20 -26 0
-16 -18 19 -20 -23 25 -27 -29 -30 0
-1 -4 -6 8 -12 15 23 -28 -29 0
5 -6 7 10 -12 15 22 27 30 0
2 4 -5 9 11 -12 17 21 29 0
5 6 -7 8 12 -13 17 -18 -21 0
-2 18 19 23 -24 -25 -27 29 -30 0
1 4 8 -15 23 -24 -27 28 -29 0
-1 -3 -9 12 13 17 19 -20 -22 0
-1 3 4 8 -12 -17 25 26 28 0
1 6 8 12 20 -21 -23 -25 29 0
3 -12 -14 -16 -19 22 -23 -26 29 0
2 4 8 -11 -14 20 21 22 -25 0
-6 11 12 19 -20 22 -23 29 30 0
2 4 11 12 15 20 21 -22 26 0
-3 -5 8 -11 13 -16 -21 25 26 0
1 -2 9 11 12 16 17 22 30 0
-5 -7 9 -17 -18 -21 -24 26 -27 0
-1 2 4 -10 11 15 -21 -25 -30 0
-10 19 20 -21 -24 -26 28 29 -30 0
-4 8 9 -10 -22 24 -25 -26 28 0
-1 2 3 11 13 16 23 28 -29 0
4 12 13 14 18 22 23 -26 27 0
-2 3 -5 6 7 -11 13 -22 -26 0
5 8 -10 15 16 -17 21 -22 -27 0
-1 -4 10 -11 12 22 23 -26 -28 0
1 -3 15 17 18 21 26 29 30 0
7 -9 -10 13 15 -20 -21 25 -29 0
-5 6 -8 9 -10 16 -18 23 -24 0
3 7 8 -13 -16 21 24 -25 28 0
-2 3 -5 7 -10 14 16 24 -28 0
2 5 7 9 12 -13 -15 23 26 0
5 6 -9 12 13 -15 -18 25 -29 0
4 -9 11 15 18 20 24 -28 -30 0
-2 -3 -5 -7 11 -18 22 -25 -27 0
6 -8 9 -11 -14 16 -19 23 30 0
5 6 -7 -8 11 -13 -16 21 26 0
2 9 11 -12 -15 16 17 24 -27 0
1 -4 -8 -13 14 -15 -22 -26 -30 0
2 -3 6 7 16 21 23 26 28 0
3 -4 5 -9 -12 -16 -19 26 -29 0
-5 11 17 21 -23 24 -25 28 29 0
2 3 -4 -9 10 18 -20 -25 -28 0
-5 -6 -8 -12 14 -15 -23 -24 25 0
-1 -2 4 -8 11 -13 -18 -19 25 0
-2 4 6 8 -9 13 -14 -15 -16 0
5 9 -16 17 20 -22 27 28 29 0
-6 -7 -9 -12 -14 -17 18 -21 -29 0
4 -7 -9 -12 -16 -18 21 23 -30 0
-6 9 10 12 -15 22 -26 27 30 0
-2 3 7 -12 19 23 27 29 -30 0
3 -4 -8 12 -13 -22 -24 -26 -30 0
2 3 -5 -8 -10 13 15 22 -24 0
-5 -10 -12 15 16 19 -22 26 30 0
2 5 -11 13 15 21 28 -29 -30 0
-2 -7 -12 13 15 19 22 23 -25 0
-5 7 10 11 -16 19 -23 -26 -27 0
-2 -8 10 -22 23 24 25 -28 -30 0
2 6 -8 -11 -12 14 -16 20 26 0
1 -2 -5 6 8 -9 -14 -19 26 0
-1 5 -7 8 9 12 -19 23 27 0
